\ LP format - for model browsing. Use MPS format to capture full model detail.
Minimize
  0 b_a_5[0,0] + 0 b_a_5[0,1] + 0 b_a_5[0,2] + 0 b_a_5[0,3] + 0 b_a_5[0,4]
   + 0 b_a_5[0,5] + 0 b_a_5[0,6] + 0 b_a_5[0,7] + 0 b_a_5[0,8]
   + 0 b_a_5[0,9] + 0 b_a_5[0,10]
Subject To
 R0: b_0 >= 0
 R1: v__0 + b_0 = 4
 R2: v__0 = 4
 R3: b_1 >= 0
 R4: vl__0 + b_1 = 5
 R5: vl__0 = 5
 R6: b_2 >= 0
 R7: d__0 + b_2 = 79
 R8: d__0 = 79
 R9: b_3 >= 0
 R10: a__0 + b_3 = 0
 R11: a__0 = 0
 R12: b_a >= 0
 R13: al__0 + b_a_6[0,0] = -1
 R14: al__0 = -1
 R15: al__1 + b_a_6[0,1] = -1
 R16: al__1 = -1
 R17: al__2 + b_a_6[0,2] = -1
 R18: al__2 = -1
 R19: al__3 + b_a_6[0,3] = -1
 R20: al__3 = -1
 R21: al__4 + b_a_6[0,4] = -1
 R22: al__4 = -1
 R23: al__5 + b_a_6[0,5] = -1
 R24: al__5 = -1
 R25: al__6 + b_a_6[0,6] = -1
 R26: al__6 = -1
 R27: al__7 + b_a_6[0,7] = -1
 R28: al__7 = -1
 R29: al__8 + b_a_6[0,8] = -1
 R30: al__8 = -1
 R31: al__9 + b_a_6[0,9] = -1
 R32: al__9 = -1
 R33: al__10 + b_a_6[0,10] = -1
 R34: al__10 = -1
 R35: - vl__0 + b_a_7[0,0] = 0
 R36: - al__0 - vl__0 + b_a_7[0,1] = 0
 R37: - al__0 - al__1 - vl__0 + b_a_7[0,2] = 0
 R38: - al__0 - al__1 - al__2 - vl__0 + b_a_7[0,3] = 0
 R39: - al__0 - al__1 - al__2 - al__3 - vl__0 + b_a_7[0,4] = 0
 R40: - al__0 - al__1 - al__2 - al__3 - al__4 - vl__0 + b_a_7[0,5] = 0
 R41: - al__0 - al__1 - al__2 - al__3 - al__4 - al__5 - vl__0 + b_a_7[0,6]
   = 0
 R42: - al__0 - al__1 - al__2 - al__3 - al__4 - al__5 - al__6 - vl__0
   + b_a_7[0,7] = 0
 R43: - al__0 - al__1 - al__2 - al__3 - al__4 - al__5 - al__6 - al__7
   - vl__0 + b_a_7[0,8] = 0
 R44: - al__0 - al__1 - al__2 - al__3 - al__4 - al__5 - al__6 - al__7
   - al__8 - vl__0 + b_a_7[0,9] = 0
 R45: - al__0 - al__1 - al__2 - al__3 - al__4 - al__5 - al__6 - al__7
   - al__8 - al__9 - vl__0 + b_a_7[0,10] = 0
 R46: - d__0 + b_g_9[0,0] = -0.1001
 SAT: b_g <= -0.0001
 qc0: b_g_9_variance__1 + [ - dn_sigma ^2 ] = 0
 qc1: v__0 - vl__0 - d__0 + b_g_9[0,1] - 8.209536151601389 b_g_9_sigma__1
   + [ 16.41907230320278 p * b_g_9_sigma__1 ] = -0.1001
 qc2: b_g_9_variance__2 + [ - 2 dn_sigma ^2 ] = 0
 qc3: - al__0 + 2 v__0 - 2 vl__0 - d__0 + a__0 + b_g_9[0,2]
   - 8.209536151601389 b_g_9_sigma__2 + [
   16.41907230320278 p * b_g_9_sigma__2 ] = -0.1001
 qc4: b_g_9_variance__3 + [ - 3 dn_sigma ^2 ] = 0
 qc5: - 2 al__0 - al__1 + 4 v__0 - 4 vl__0 - d__0 + 2 a__0 + b_g_9[0,3]
   - 8.209536151601389 b_g_9_sigma__3 + [
   16.41907230320278 p * b_g_9_sigma__3 ] = -0.1001
 qc6: b_g_9_variance__4 + [ - 4 dn_sigma ^2 ] = 0
 qc7: - 4 al__0 - 2 al__1 - al__2 + 7 v__0 - 7 vl__0 - d__0 + 4 a__0
   + b_g_9[0,4] - 8.209536151601389 b_g_9_sigma__4 + [
   16.41907230320278 p * b_g_9_sigma__4 ] = -0.1001
 qc8: b_g_9_variance__5 + [ - 5 dn_sigma ^2 ] = 0
 qc9: - 7 al__0 - 4 al__1 - 2 al__2 - al__3 + 12 v__0 - 12 vl__0 - d__0
   + 7 a__0 + b_g_9[0,5] - 8.209536151601389 b_g_9_sigma__5 + [
   16.41907230320278 p * b_g_9_sigma__5 ] = -0.1001
 qc10: b_g_9_variance__6 + [ - 6 dn_sigma ^2 ] = 0
 qc11: - 12 al__0 - 7 al__1 - 4 al__2 - 2 al__3 - al__4 + 20 v__0
   - 20 vl__0 - d__0 + 12 a__0 + b_g_9[0,6]
   - 8.209536151601389 b_g_9_sigma__6 + [
   16.41907230320278 p * b_g_9_sigma__6 ] = -0.1001
 qc12: b_g_9_variance__7 + [ - 7 dn_sigma ^2 ] = 0
 qc13: - 20 al__0 - 12 al__1 - 7 al__2 - 4 al__3 - 2 al__4 - al__5
   + 33 v__0 - 33 vl__0 - d__0 + 20 a__0 + b_g_9[0,7]
   - 8.209536151601389 b_g_9_sigma__7 + [
   16.41907230320278 p * b_g_9_sigma__7 ] = -0.1001
 qc14: b_g_9_variance__8 + [ - 8 dn_sigma ^2 ] = 0
 qc15: - 33 al__0 - 20 al__1 - 12 al__2 - 7 al__3 - 4 al__4 - 2 al__5
   - al__6 + 54 v__0 - 54 vl__0 - d__0 + 33 a__0 + b_g_9[0,8]
   - 8.209536151601389 b_g_9_sigma__8 + [
   16.41907230320278 p * b_g_9_sigma__8 ] = -0.1001
 qc16: b_g_9_variance__9 + [ - 9 dn_sigma ^2 ] = 0
 qc17: - 54 al__0 - 33 al__1 - 20 al__2 - 12 al__3 - 7 al__4 - 4 al__5
   - 2 al__6 - al__7 + 88 v__0 - 88 vl__0 - d__0 + 54 a__0 + b_g_9[0,9]
   - 8.209536151601389 b_g_9_sigma__9 + [
   16.41907230320278 p * b_g_9_sigma__9 ] = -0.1001
 qc18: b_g_9_variance__10 + [ - 10 dn_sigma ^2 ] = 0
 qc19: - 88 al__0 - 54 al__1 - 33 al__2 - 20 al__3 - 12 al__4 - 7 al__5
   - 4 al__6 - 2 al__7 - al__8 + 143 v__0 - 143 vl__0 - d__0 + 88 a__0
   + b_g_9[0,10] - 8.209536151601389 b_g_9_sigma__10 + [
   16.41907230320278 p * b_g_9_sigma__10 ] = -0.1001
Bounds
 -3.5 <= al__0 <= 3.5
 -3.5 <= al__1 <= 3.5
 -3.5 <= al__2 <= 3.5
 -3.5 <= al__3 <= 3.5
 -3.5 <= al__4 <= 3.5
 -3.5 <= al__5 <= 3.5
 -3.5 <= al__6 <= 3.5
 -3.5 <= al__7 <= 3.5
 -3.5 <= al__8 <= 3.5
 -3.5 <= al__9 <= 3.5
 -3.5 <= al__10 <= 3.5
 0.5 <= p <= 1
 0.0001 <= dn_sigma <= 0.5
 -10000 <= v__0 <= 10000
 -10000 <= vl__0 <= 10000
 -10000 <= d__0 <= 10000
 -10000 <= a__0 <= 10000
 -10000 <= b_0 <= 10000
 -10000 <= b_1 <= 10000
 -10000 <= b_2 <= 10000
 -10000 <= b_3 <= 10000
 -10000 <= b_a <= 10000
 -10000 <= b_a_5[0,0] <= 10000
 -10000 <= b_a_5[0,1] <= 10000
 -10000 <= b_a_5[0,2] <= 10000
 -10000 <= b_a_5[0,3] <= 10000
 -10000 <= b_a_5[0,4] <= 10000
 -10000 <= b_a_5[0,5] <= 10000
 -10000 <= b_a_5[0,6] <= 10000
 -10000 <= b_a_5[0,7] <= 10000
 -10000 <= b_a_5[0,8] <= 10000
 -10000 <= b_a_5[0,9] <= 10000
 -10000 <= b_a_5[0,10] <= 10000
 -10000 <= b_a_6[0,0] <= 10000
 -10000 <= b_a_6[0,1] <= 10000
 -10000 <= b_a_6[0,2] <= 10000
 -10000 <= b_a_6[0,3] <= 10000
 -10000 <= b_a_6[0,4] <= 10000
 -10000 <= b_a_6[0,5] <= 10000
 -10000 <= b_a_6[0,6] <= 10000
 -10000 <= b_a_6[0,7] <= 10000
 -10000 <= b_a_6[0,8] <= 10000
 -10000 <= b_a_6[0,9] <= 10000
 -10000 <= b_a_6[0,10] <= 10000
 -10000 <= b_a_7[0,0] <= 10000
 -10000 <= b_a_7[0,1] <= 10000
 -10000 <= b_a_7[0,2] <= 10000
 -10000 <= b_a_7[0,3] <= 10000
 -10000 <= b_a_7[0,4] <= 10000
 -10000 <= b_a_7[0,5] <= 10000
 -10000 <= b_a_7[0,6] <= 10000
 -10000 <= b_a_7[0,7] <= 10000
 -10000 <= b_a_7[0,8] <= 10000
 -10000 <= b_a_7[0,9] <= 10000
 -10000 <= b_a_7[0,10] <= 10000
 -10000 <= b_g <= 10000
 -10000 <= b_g_9[0,0] <= 10000
 -10000 <= b_g_9[0,1] <= 10000
 -10000 <= b_g_9[0,2] <= 10000
 -10000 <= b_g_9[0,3] <= 10000
 -10000 <= b_g_9[0,4] <= 10000
 -10000 <= b_g_9[0,5] <= 10000
 -10000 <= b_g_9[0,6] <= 10000
 -10000 <= b_g_9[0,7] <= 10000
 -10000 <= b_g_9[0,8] <= 10000
 -10000 <= b_g_9[0,9] <= 10000
 -10000 <= b_g_9[0,10] <= 10000
 b_g_9_variance__1 <= 10000
 b_g_9_sigma__1 <= 10000
 b_g_9_variance__2 <= 10000
 b_g_9_sigma__2 <= 10000
 b_g_9_variance__3 <= 10000
 b_g_9_sigma__3 <= 10000
 b_g_9_variance__4 <= 10000
 b_g_9_sigma__4 <= 10000
 b_g_9_variance__5 <= 10000
 b_g_9_sigma__5 <= 10000
 b_g_9_variance__6 <= 10000
 b_g_9_sigma__6 <= 10000
 b_g_9_variance__7 <= 10000
 b_g_9_sigma__7 <= 10000
 b_g_9_variance__8 <= 10000
 b_g_9_sigma__8 <= 10000
 b_g_9_variance__9 <= 10000
 b_g_9_sigma__9 <= 10000
 b_g_9_variance__10 <= 10000
 b_g_9_sigma__10 <= 10000
General Constraints
 GC0: b_a_5[0,0] = MIN ( b_a_6[0,0] , b_a_7[0,0] )
 GC1: b_a_5[0,1] = MIN ( b_a_6[0,1] , b_a_7[0,1] )
 GC2: b_a_5[0,2] = MIN ( b_a_6[0,2] , b_a_7[0,2] )
 GC3: b_a_5[0,3] = MIN ( b_a_6[0,3] , b_a_7[0,3] )
 GC4: b_a_5[0,4] = MIN ( b_a_6[0,4] , b_a_7[0,4] )
 GC5: b_a_5[0,5] = MIN ( b_a_6[0,5] , b_a_7[0,5] )
 GC6: b_a_5[0,6] = MIN ( b_a_6[0,6] , b_a_7[0,6] )
 GC7: b_a_5[0,7] = MIN ( b_a_6[0,7] , b_a_7[0,7] )
 GC8: b_a_5[0,8] = MIN ( b_a_6[0,8] , b_a_7[0,8] )
 GC9: b_a_5[0,9] = MIN ( b_a_6[0,9] , b_a_7[0,9] )
 GC10: b_a_5[0,10] = MIN ( b_a_6[0,10] , b_a_7[0,10] )
 GC11: b_a = MIN ( b_a_5[0,0] , b_a_5[0,1] , b_a_5[0,2] , b_a_5[0,3] ,
   b_a_5[0,4] , b_a_5[0,5] , b_a_5[0,6] , b_a_5[0,7] , b_a_5[0,8] ,
   b_a_5[0,9] , b_a_5[0,10] )
 GC12: b_g_9_sigma__1 = POW ( b_g_9_variance__1 ^ 0.5 )
 GC13: b_g_9_sigma__2 = POW ( b_g_9_variance__2 ^ 0.5 )
 GC14: b_g_9_sigma__3 = POW ( b_g_9_variance__3 ^ 0.5 )
 GC15: b_g_9_sigma__4 = POW ( b_g_9_variance__4 ^ 0.5 )
 GC16: b_g_9_sigma__5 = POW ( b_g_9_variance__5 ^ 0.5 )
 GC17: b_g_9_sigma__6 = POW ( b_g_9_variance__6 ^ 0.5 )
 GC18: b_g_9_sigma__7 = POW ( b_g_9_variance__7 ^ 0.5 )
 GC19: b_g_9_sigma__8 = POW ( b_g_9_variance__8 ^ 0.5 )
 GC20: b_g_9_sigma__9 = POW ( b_g_9_variance__9 ^ 0.5 )
 GC21: b_g_9_sigma__10 = POW ( b_g_9_variance__10 ^ 0.5 )
 GC22: b_g = MIN ( b_g_9[0,0] , b_g_9[0,1] , b_g_9[0,2] , b_g_9[0,3] ,
   b_g_9[0,4] , b_g_9[0,5] , b_g_9[0,6] , b_g_9[0,7] , b_g_9[0,8] ,
   b_g_9[0,9] , b_g_9[0,10] )
End
